
        $ From http://www.csplib.org/Problems/prob009/data/helmut.pdf
        $ Problem number 179
        $ Sequence length : 25
        language ESSENCE' 1.0
        letting sizemaster be 552
        letting sizes be sequence(5,17,18,22,25,27,32,33,39,59,62,87,91,100,102,111,112,135,137,149,165,168,183,201,204)
        